proyfinal/src/viki/013/andrea/andrea-localstore/experimentInOfficeAgust.take6/worker_3/260f0a42-2f81-47fd-8e7f-bf3bd2b021a4.als.cnf.out
Reading from standard input... Use '--help' for help.
============================[ Problem Statistics ]=============================
|                                                                             |
|  Number of variables:         87638                                         |
|  Number of clauses:          161767                                         |
|  Parse time:                   0.04 s                                       |
|                                                                             |
============================[ Search Statistics ]==============================
| Conflicts |          ORIGINAL         |          LEARNT          | Progress |
|           |    Vars  Clauses Literals |    Limit  Clauses Lit/Cl |          |
===============================================================================
|       100 |   62090   104314   260202 |    38248      100      8 | 29.152 % |
|       250 |   62090   104314   260202 |    42073      250     51 | 29.152 % |
|       475 |   62089   104270   260112 |    46280      474     60 | 29.153 % |
|       812 |   62089   104270   260112 |    50908      811     56 | 29.153 % |
|      1318 |   62089   104270   260112 |    55999     1317     55 | 29.153 % |
|      2077 |   62089   104270   260112 |    61599     2076     53 | 29.153 % |
|      3216 |   62089   104270   260112 |    67759     3215     56 | 29.153 % |
|      4924 |   62089   104270   260112 |    74535     4923     65 | 29.153 % |
|      7486 |   62054   104233   260038 |    81988     7383     69 | 29.193 % |
|     11330 |   62054   104233   260038 |    90187    11227     67 | 29.193 % |
===============================================================================
restarts              : 62
conflicts             : 14631          (7998 /sec)
decisions             : 49596          (0.00 % random) (27111 /sec)
propagations          : 19277358       (10537542 /sec)
conflict literals     : 990952         (53.99 % deleted)
Memory used           : 27.57 MB
CPU time              : 1.8294 s

UNSATISFIABLE
